results_rootrelaxation/bin012_070_049.srr.sol
solution status: optimal solution found
objective value:                                  8.5
_var659_                            0.166666666666667 	(obj:0)
_var660_                            0.666666666666667 	(obj:1)
_var661_                            0.333333333333334 	(obj:1)
_var674_                            0.333333333333334 	(obj:0)
_var684_                                          0.5 	(obj:0)
_var722_                            0.166666666666667 	(obj:1)
_var740_                            0.166666666666667 	(obj:0)
_var743_                            0.166666666666667 	(obj:2)
_var746_                            0.333333333333334 	(obj:0)
_var758_                            0.333333333333333 	(obj:0)
_var761_                            0.166666666666667 	(obj:2)
_var765_                            0.166666666666667 	(obj:1)
_var768_                            0.333333333333333 	(obj:0)
_var770_                            0.166666666666666 	(obj:1)
_var773_                            0.166666666666667 	(obj:0)
_var776_                            0.333333333333333 	(obj:1)
_var777_                            0.499999999999999 	(obj:2)
_var793_                            0.166666666666666 	(obj:1)
_var803_                            0.166666666666667 	(obj:0)
_var804_                                          0.5 	(obj:2)
_var819_                                          0.5 	(obj:0)
_var828_                            0.333333333333333 	(obj:0)
_var830_                            0.333333333333334 	(obj:0)
_var832_                            0.166666666666668 	(obj:2)
_var833_                            0.333333333333334 	(obj:1)
_var834_                            0.166666666666667 	(obj:0)
_var835_                            0.333333333333334 	(obj:0)
_var838_                            0.166666666666667 	(obj:1)
_var840_                            0.166666666666667 	(obj:1)
_var843_                            0.166666666666667 	(obj:2)
_var853_                            0.166666666666667 	(obj:2)
_var854_                            0.166666666666667 	(obj:0)
_var860_                            0.166666666666667 	(obj:1)
_var862_                            0.333333333333333 	(obj:1)
_var864_                            0.166666666666667 	(obj:0)
_var868_                            0.166666666666667 	(obj:1)
_var869_                            0.166666666666666 	(obj:1)
_var870_                            0.166666666666667 	(obj:1)
_var872_                            0.166666666666666 	(obj:1)
_var873_                            0.333333333333333 	(obj:1)
_var876_                            0.166666666666666 	(obj:2)
_var879_                            0.166666666666668 	(obj:1)
_var880_                            0.166666666666667 	(obj:1)
